SPECK/model/Simon_3.lp
Minimize
x_3_0 + x_3_1 + x_3_2 + x_3_3 + x_3_4 + x_3_5 + x_3_6 + x_3_7 + x_3_8 + x_3_9 + x_3_10 + x_3_11 + x_3_12 + x_3_13 + x_3_14 + x_3_15 + y_3_0 + y_3_1 + y_3_2 + y_3_3 + y_3_4 + y_3_5 + y_3_6 + y_3_7 + y_3_8 + y_3_9 + y_3_10 + y_3_11 + y_3_12 + y_3_13 + y_3_14 + y_3_15
Subject To
y_0_0 - u_0_0 - v_0_0 = 0
y_0_1 - u_0_1 - v_0_1 = 0
y_0_2 - u_0_2 - v_0_2 = 0
y_0_3 - u_0_3 - v_0_3 = 0
y_0_4 - u_0_4 - v_0_4 = 0
y_0_5 - u_0_5 - v_0_5 = 0
y_0_6 - u_0_6 - v_0_6 = 0
y_0_7 - u_0_7 - v_0_7 = 0
y_0_8 - u_0_8 - v_0_8 = 0
y_0_9 - u_0_9 - v_0_9 = 0
y_0_10 - u_0_10 - v_0_10 = 0
y_0_11 - u_0_11 - v_0_11 = 0
y_0_12 - u_0_12 - v_0_12 = 0
y_0_13 - u_0_13 - v_0_13 = 0
y_0_14 - u_0_14 - v_0_14 = 0
y_0_15 - u_0_15 - v_0_15 = 0
w_0_0 - u_0_0 >= 0
w_0_0 - x_0_9 >= 0
w_0_0 - u_0_0 - x_0_9 <= 0
w_0_1 - u_0_1 >= 0
w_0_1 - x_0_10 >= 0
w_0_1 - u_0_1 - x_0_10 <= 0
w_0_2 - u_0_2 >= 0
w_0_2 - x_0_11 >= 0
w_0_2 - u_0_2 - x_0_11 <= 0
w_0_3 - u_0_3 >= 0
w_0_3 - x_0_12 >= 0
w_0_3 - u_0_3 - x_0_12 <= 0
w_0_4 - u_0_4 >= 0
w_0_4 - x_0_13 >= 0
w_0_4 - u_0_4 - x_0_13 <= 0
w_0_5 - u_0_5 >= 0
w_0_5 - x_0_14 >= 0
w_0_5 - u_0_5 - x_0_14 <= 0
w_0_6 - u_0_6 >= 0
w_0_6 - x_0_15 >= 0
w_0_6 - u_0_6 - x_0_15 <= 0
w_0_7 - u_0_7 >= 0
w_0_7 - x_0_0 >= 0
w_0_7 - u_0_7 - x_0_0 <= 0
w_0_8 - u_0_8 >= 0
w_0_8 - x_0_1 >= 0
w_0_8 - u_0_8 - x_0_1 <= 0
w_0_9 - u_0_9 >= 0
w_0_9 - x_0_2 >= 0
w_0_9 - u_0_9 - x_0_2 <= 0
w_0_10 - u_0_10 >= 0
w_0_10 - x_0_3 >= 0
w_0_10 - u_0_10 - x_0_3 <= 0
w_0_11 - u_0_11 >= 0
w_0_11 - x_0_4 >= 0
w_0_11 - u_0_11 - x_0_4 <= 0
w_0_12 - u_0_12 >= 0
w_0_12 - x_0_5 >= 0
w_0_12 - u_0_12 - x_0_5 <= 0
w_0_13 - u_0_13 >= 0
w_0_13 - x_0_6 >= 0
w_0_13 - u_0_13 - x_0_6 <= 0
w_0_14 - u_0_14 >= 0
w_0_14 - x_0_7 >= 0
w_0_14 - u_0_14 - x_0_7 <= 0
w_0_15 - u_0_15 >= 0
w_0_15 - x_0_8 >= 0
w_0_15 - u_0_15 - x_0_8 <= 0
w_0_0 - t_0_0 - x_1_0 = 0
w_0_1 - t_0_1 - x_1_1 = 0
w_0_2 - t_0_2 - x_1_2 = 0
w_0_3 - t_0_3 - x_1_3 = 0
w_0_4 - t_0_4 - x_1_4 = 0
w_0_5 - t_0_5 - x_1_5 = 0
w_0_6 - t_0_6 - x_1_6 = 0
w_0_7 - t_0_7 - x_1_7 = 0
w_0_8 - t_0_8 - x_1_8 = 0
w_0_9 - t_0_9 - x_1_9 = 0
w_0_10 - t_0_10 - x_1_10 = 0
w_0_11 - t_0_11 - x_1_11 = 0
w_0_12 - t_0_12 - x_1_12 = 0
w_0_13 - t_0_13 - x_1_13 = 0
w_0_14 - t_0_14 - x_1_14 = 0
w_0_15 - t_0_15 - x_1_15 = 0
y_1_0 - t_0_0 - v_0_2 = 0
y_1_1 - t_0_1 - v_0_3 = 0
y_1_2 - t_0_2 - v_0_4 = 0
y_1_3 - t_0_3 - v_0_5 = 0
y_1_4 - t_0_4 - v_0_6 = 0
y_1_5 - t_0_5 - v_0_7 = 0
y_1_6 - t_0_6 - v_0_8 = 0
y_1_7 - t_0_7 - v_0_9 = 0
y_1_8 - t_0_8 - v_0_10 = 0
y_1_9 - t_0_9 - v_0_11 = 0
y_1_10 - t_0_10 - v_0_12 = 0
y_1_11 - t_0_11 - v_0_13 = 0
y_1_12 - t_0_12 - v_0_14 = 0
y_1_13 - t_0_13 - v_0_15 = 0
y_1_14 - t_0_14 - v_0_0 = 0
y_1_15 - t_0_15 - v_0_1 = 0
y_1_0 - u_1_0 - v_1_0 = 0
y_1_1 - u_1_1 - v_1_1 = 0
y_1_2 - u_1_2 - v_1_2 = 0
y_1_3 - u_1_3 - v_1_3 = 0
y_1_4 - u_1_4 - v_1_4 = 0
y_1_5 - u_1_5 - v_1_5 = 0
y_1_6 - u_1_6 - v_1_6 = 0
y_1_7 - u_1_7 - v_1_7 = 0
y_1_8 - u_1_8 - v_1_8 = 0
y_1_9 - u_1_9 - v_1_9 = 0
y_1_10 - u_1_10 - v_1_10 = 0
y_1_11 - u_1_11 - v_1_11 = 0
y_1_12 - u_1_12 - v_1_12 = 0
y_1_13 - u_1_13 - v_1_13 = 0
y_1_14 - u_1_14 - v_1_14 = 0
y_1_15 - u_1_15 - v_1_15 = 0
w_1_0 - u_1_0 >= 0
w_1_0 - x_1_9 >= 0
w_1_0 - u_1_0 - x_1_9 <= 0
w_1_1 - u_1_1 >= 0
w_1_1 - x_1_10 >= 0
w_1_1 - u_1_1 - x_1_10 <= 0
w_1_2 - u_1_2 >= 0
w_1_2 - x_1_11 >= 0
w_1_2 - u_1_2 - x_1_11 <= 0
w_1_3 - u_1_3 >= 0
w_1_3 - x_1_12 >= 0
w_1_3 - u_1_3 - x_1_12 <= 0
w_1_4 - u_1_4 >= 0
w_1_4 - x_1_13 >= 0
w_1_4 - u_1_4 - x_1_13 <= 0
w_1_5 - u_1_5 >= 0
w_1_5 - x_1_14 >= 0
w_1_5 - u_1_5 - x_1_14 <= 0
w_1_6 - u_1_6 >= 0
w_1_6 - x_1_15 >= 0
w_1_6 - u_1_6 - x_1_15 <= 0
w_1_7 - u_1_7 >= 0
w_1_7 - x_1_0 >= 0
w_1_7 - u_1_7 - x_1_0 <= 0
w_1_8 - u_1_8 >= 0
w_1_8 - x_1_1 >= 0
w_1_8 - u_1_8 - x_1_1 <= 0
w_1_9 - u_1_9 >= 0
w_1_9 - x_1_2 >= 0
w_1_9 - u_1_9 - x_1_2 <= 0
w_1_10 - u_1_10 >= 0
w_1_10 - x_1_3 >= 0
w_1_10 - u_1_10 - x_1_3 <= 0
w_1_11 - u_1_11 >= 0
w_1_11 - x_1_4 >= 0
w_1_11 - u_1_11 - x_1_4 <= 0
w_1_12 - u_1_12 >= 0
w_1_12 - x_1_5 >= 0
w_1_12 - u_1_12 - x_1_5 <= 0
w_1_13 - u_1_13 >= 0
w_1_13 - x_1_6 >= 0
w_1_13 - u_1_13 - x_1_6 <= 0
w_1_14 - u_1_14 >= 0
w_1_14 - x_1_7 >= 0
w_1_14 - u_1_14 - x_1_7 <= 0
w_1_15 - u_1_15 >= 0
w_1_15 - x_1_8 >= 0
w_1_15 - u_1_15 - x_1_8 <= 0
w_1_0 - t_1_0 - x_2_0 = 0
w_1_1 - t_1_1 - x_2_1 = 0
w_1_2 - t_1_2 - x_2_2 = 0
w_1_3 - t_1_3 - x_2_3 = 0
w_1_4 - t_1_4 - x_2_4 = 0
w_1_5 - t_1_5 - x_2_5 = 0
w_1_6 - t_1_6 - x_2_6 = 0
w_1_7 - t_1_7 - x_2_7 = 0
w_1_8 - t_1_8 - x_2_8 = 0
w_1_9 - t_1_9 - x_2_9 = 0
w_1_10 - t_1_10 - x_2_10 = 0
w_1_11 - t_1_11 - x_2_11 = 0
w_1_12 - t_1_12 - x_2_12 = 0
w_1_13 - t_1_13 - x_2_13 = 0
w_1_14 - t_1_14 - x_2_14 = 0
w_1_15 - t_1_15 - x_2_15 = 0
y_2_0 - t_1_0 - v_1_2 = 0
y_2_1 - t_1_1 - v_1_3 = 0
y_2_2 - t_1_2 - v_1_4 = 0
y_2_3 - t_1_3 - v_1_5 = 0
y_2_4 - t_1_4 - v_1_6 = 0
y_2_5 - t_1_5 - v_1_7 = 0
y_2_6 - t_1_6 - v_1_8 = 0
y_2_7 - t_1_7 - v_1_9 = 0
y_2_8 - t_1_8 - v_1_10 = 0
y_2_9 - t_1_9 - v_1_11 = 0
y_2_10 - t_1_10 - v_1_12 = 0
y_2_11 - t_1_11 - v_1_13 = 0
y_2_12 - t_1_12 - v_1_14 = 0
y_2_13 - t_1_13 - v_1_15 = 0
y_2_14 - t_1_14 - v_1_0 = 0
y_2_15 - t_1_15 - v_1_1 = 0
y_2_0 - u_2_0 - v_2_0 = 0
y_2_1 - u_2_1 - v_2_1 = 0
y_2_2 - u_2_2 - v_2_2 = 0
y_2_3 - u_2_3 - v_2_3 = 0
y_2_4 - u_2_4 - v_2_4 = 0
y_2_5 - u_2_5 - v_2_5 = 0
y_2_6 - u_2_6 - v_2_6 = 0
y_2_7 - u_2_7 - v_2_7 = 0
y_2_8 - u_2_8 - v_2_8 = 0
y_2_9 - u_2_9 - v_2_9 = 0
y_2_10 - u_2_10 - v_2_10 = 0
y_2_11 - u_2_11 - v_2_11 = 0
y_2_12 - u_2_12 - v_2_12 = 0
y_2_13 - u_2_13 - v_2_13 = 0
y_2_14 - u_2_14 - v_2_14 = 0
y_2_15 - u_2_15 - v_2_15 = 0
w_2_0 - u_2_0 >= 0
w_2_0 - x_2_9 >= 0
w_2_0 - u_2_0 - x_2_9 <= 0
w_2_1 - u_2_1 >= 0
w_2_1 - x_2_10 >= 0
w_2_1 - u_2_1 - x_2_10 <= 0
w_2_2 - u_2_2 >= 0
w_2_2 - x_2_11 >= 0
w_2_2 - u_2_2 - x_2_11 <= 0
w_2_3 - u_2_3 >= 0
w_2_3 - x_2_12 >= 0
w_2_3 - u_2_3 - x_2_12 <= 0
w_2_4 - u_2_4 >= 0
w_2_4 - x_2_13 >= 0
w_2_4 - u_2_4 - x_2_13 <= 0
w_2_5 - u_2_5 >= 0
w_2_5 - x_2_14 >= 0
w_2_5 - u_2_5 - x_2_14 <= 0
w_2_6 - u_2_6 >= 0
w_2_6 - x_2_15 >= 0
w_2_6 - u_2_6 - x_2_15 <= 0
w_2_7 - u_2_7 >= 0
w_2_7 - x_2_0 >= 0
w_2_7 - u_2_7 - x_2_0 <= 0
w_2_8 - u_2_8 >= 0
w_2_8 - x_2_1 >= 0
w_2_8 - u_2_8 - x_2_1 <= 0
w_2_9 - u_2_9 >= 0
w_2_9 - x_2_2 >= 0
w_2_9 - u_2_9 - x_2_2 <= 0
w_2_10 - u_2_10 >= 0
w_2_10 - x_2_3 >= 0
w_2_10 - u_2_10 - x_2_3 <= 0
w_2_11 - u_2_11 >= 0
w_2_11 - x_2_4 >= 0
w_2_11 - u_2_11 - x_2_4 <= 0
w_2_12 - u_2_12 >= 0
w_2_12 - x_2_5 >= 0
w_2_12 - u_2_12 - x_2_5 <= 0
w_2_13 - u_2_13 >= 0
w_2_13 - x_2_6 >= 0
w_2_13 - u_2_13 - x_2_6 <= 0
w_2_14 - u_2_14 >= 0
w_2_14 - x_2_7 >= 0
w_2_14 - u_2_14 - x_2_7 <= 0
w_2_15 - u_2_15 >= 0
w_2_15 - x_2_8 >= 0
w_2_15 - u_2_15 - x_2_8 <= 0
w_2_0 - t_2_0 - x_3_0 = 0
w_2_1 - t_2_1 - x_3_1 = 0
w_2_2 - t_2_2 - x_3_2 = 0
w_2_3 - t_2_3 - x_3_3 = 0
w_2_4 - t_2_4 - x_3_4 = 0
w_2_5 - t_2_5 - x_3_5 = 0
w_2_6 - t_2_6 - x_3_6 = 0
w_2_7 - t_2_7 - x_3_7 = 0
w_2_8 - t_2_8 - x_3_8 = 0
w_2_9 - t_2_9 - x_3_9 = 0
w_2_10 - t_2_10 - x_3_10 = 0
w_2_11 - t_2_11 - x_3_11 = 0
w_2_12 - t_2_12 - x_3_12 = 0
w_2_13 - t_2_13 - x_3_13 = 0
w_2_14 - t_2_14 - x_3_14 = 0
w_2_15 - t_2_15 - x_3_15 = 0
y_3_0 - t_2_0 - v_2_2 = 0
y_3_1 - t_2_1 - v_2_3 = 0
y_3_2 - t_2_2 - v_2_4 = 0
y_3_3 - t_2_3 - v_2_5 = 0
y_3_4 - t_2_4 - v_2_6 = 0
y_3_5 - t_2_5 - v_2_7 = 0
y_3_6 - t_2_6 - v_2_8 = 0
y_3_7 - t_2_7 - v_2_9 = 0
y_3_8 - t_2_8 - v_2_10 = 0
y_3_9 - t_2_9 - v_2_11 = 0
y_3_10 - t_2_10 - v_2_12 = 0
y_3_11 - t_2_11 - v_2_13 = 0
y_3_12 - t_2_12 - v_2_14 = 0
y_3_13 - t_2_13 - v_2_15 = 0
y_3_14 - t_2_14 - v_2_0 = 0
y_3_15 - t_2_15 - v_2_1 = 0
y_0_15 = 0
y_0_14 = 0
y_0_13 = 0
y_0_12 = 1
y_0_11 = 1
y_0_10 = 1
y_0_9 = 1
y_0_8 = 1
y_0_7 = 1
y_0_6 = 1
y_0_5 = 1
y_0_4 = 1
y_0_3 = 1
y_0_2 = 1
y_0_1 = 1
y_0_0 = 1
x_0_15 = 1
x_0_14 = 1
x_0_13 = 1
x_0_12 = 1
x_0_11 = 1
x_0_10 = 1
x_0_9 = 1
x_0_8 = 1
x_0_7 = 1
x_0_6 = 1
x_0_5 = 1
x_0_4 = 1
x_0_3 = 1
x_0_2 = 1
x_0_1 = 1
x_0_0 = 1
Binary
x_0_0
x_0_1
x_0_2
x_0_3
x_0_4
x_0_5
x_0_6
x_0_7
x_0_8
x_0_9
x_0_10
x_0_11
x_0_12
x_0_13
x_0_14
x_0_15
y_0_0
y_0_1
y_0_2
y_0_3
y_0_4
y_0_5
y_0_6
y_0_7
y_0_8
y_0_9
y_0_10
y_0_11
y_0_12
y_0_13
y_0_14
y_0_15
u_0_0
u_0_1
u_0_2
u_0_3
u_0_4
u_0_5
u_0_6
u_0_7
u_0_8
u_0_9
u_0_10
u_0_11
u_0_12
u_0_13
u_0_14
u_0_15
v_0_0
v_0_1
v_0_2
v_0_3
v_0_4
v_0_5
v_0_6
v_0_7
v_0_8
v_0_9
v_0_10
v_0_11
v_0_12
v_0_13
v_0_14
v_0_15
w_0_0
w_0_1
w_0_2
w_0_3
w_0_4
w_0_5
w_0_6
w_0_7
w_0_8
w_0_9
w_0_10
w_0_11
w_0_12
w_0_13
w_0_14
w_0_15
t_0_0
t_0_1
t_0_2
t_0_3
t_0_4
t_0_5
t_0_6
t_0_7
t_0_8
t_0_9
t_0_10
t_0_11
t_0_12
t_0_13
t_0_14
t_0_15
x_1_0
x_1_1
x_1_2
x_1_3
x_1_4
x_1_5
x_1_6
x_1_7
x_1_8
x_1_9
x_1_10
x_1_11
x_1_12
x_1_13
x_1_14
x_1_15
y_1_0
y_1_1
y_1_2
y_1_3
y_1_4
y_1_5
y_1_6
y_1_7
y_1_8
y_1_9
y_1_10
y_1_11
y_1_12
y_1_13
y_1_14
y_1_15
u_1_0
u_1_1
u_1_2
u_1_3
u_1_4
u_1_5
u_1_6
u_1_7
u_1_8
u_1_9
u_1_10
u_1_11
u_1_12
u_1_13
u_1_14
u_1_15
v_1_0
v_1_1
v_1_2
v_1_3
v_1_4
v_1_5
v_1_6
v_1_7
v_1_8
v_1_9
v_1_10
v_1_11
v_1_12
v_1_13
v_1_14
v_1_15
w_1_0
w_1_1
w_1_2
w_1_3
w_1_4
w_1_5
w_1_6
w_1_7
w_1_8
w_1_9
w_1_10
w_1_11
w_1_12
w_1_13
w_1_14
w_1_15
t_1_0
t_1_1
t_1_2
t_1_3
t_1_4
t_1_5
t_1_6
t_1_7
t_1_8
t_1_9
t_1_10
t_1_11
t_1_12
t_1_13
t_1_14
t_1_15
x_2_0
x_2_1
x_2_2
x_2_3
x_2_4
x_2_5
x_2_6
x_2_7
x_2_8
x_2_9
x_2_10
x_2_11
x_2_12
x_2_13
x_2_14
x_2_15
y_2_0
y_2_1
y_2_2
y_2_3
y_2_4
y_2_5
y_2_6
y_2_7
y_2_8
y_2_9
y_2_10
y_2_11
y_2_12
y_2_13
y_2_14
y_2_15
u_2_0
u_2_1
u_2_2
u_2_3
u_2_4
u_2_5
u_2_6
u_2_7
u_2_8
u_2_9
u_2_10
u_2_11
u_2_12
u_2_13
u_2_14
u_2_15
v_2_0
v_2_1
v_2_2
v_2_3
v_2_4
v_2_5
v_2_6
v_2_7
v_2_8
v_2_9
v_2_10
v_2_11
v_2_12
v_2_13
v_2_14
v_2_15
w_2_0
w_2_1
w_2_2
w_2_3
w_2_4
w_2_5
w_2_6
w_2_7
w_2_8
w_2_9
w_2_10
w_2_11
w_2_12
w_2_13
w_2_14
w_2_15
t_2_0
t_2_1
t_2_2
t_2_3
t_2_4
t_2_5
t_2_6
t_2_7
t_2_8
t_2_9
t_2_10
t_2_11
t_2_12
t_2_13
t_2_14
t_2_15
x_3_0
x_3_1
x_3_2
x_3_3
x_3_4
x_3_5
x_3_6
x_3_7
x_3_8
x_3_9
x_3_10
x_3_11
x_3_12
x_3_13
x_3_14
x_3_15
y_3_0
y_3_1
y_3_2
y_3_3
y_3_4
y_3_5
y_3_6
y_3_7
y_3_8
y_3_9
y_3_10
y_3_11
y_3_12
y_3_13
y_3_14
y_3_15
END